80 8
90 20
93 58
37 36
31 20
64 75
64 33
14 58
74 96
11 56
81 29
14 29
34 91
47 72
15 69
79 93
81 23
38 46
91 44
58 4
11 23
70 14
34 9
19 72
63 89
42 24
23 73
11 54
27 89
18 88
76 24
15 34
100 94
70 98
99 26
78 12
29 62
6 1
27 59
49 54
96 67
3 27
96 33
91 29
88 85
66 63
56 77
98 33
71 51
46 30
94 27
16 38
90 64
48 67
13 73
73 5
30 28
85 91
2 8
85 65
15 69
42 10
33 38
21 47
36 22
86 95
34 23
58 34
24 3
36 27
6 31
92 5
33 26
59 93
93 27
36 9
69 50
29 9
48 8
84 40
59 61
725 824
464 575
647 777
477 581
490 594
495 595
667 809
468 543
